lp_solve/compute_ilp/benchmarks/fft.lp
Maximize

198 dSta_0 + 102 d0_48 + 2 d1_2.v0 + 2 d1_2.v1 + 21 d1_3.v0 + 21 d1_3.v1 + 22 d2_3.v0 + 22 d2_3.v1 + 2 d3_4.v0 + 2 d3_4.v1 + 54 d3_5.v0 + 54 d3_5.v1 + 55 d4_5.v0 + 55 d4_5.v1 + 34 d5_6.v0 + 34 d5_6.v1 + 19 d5_1.v0 + 19 d5_1.v1 + 2 d6_7 + 68 d6_8 + 68 d7_8 + 34 d8_44 + 105 d9_11.v0 + 45 d9_11.v1 + 37 d9_43.v0 + 37 d9_43.v1 + 105 d10_11.v00 + 105 d10_11.v01 + 45 d10_11.v10 + 45 d10_11.v11 + 7 d10_10.v00 + 7 d10_10.v01 + 7 d10_10.v10 + 7 d10_10.v11 + 33 d11_12.v0 + 33 d11_12.v1 + 4 d11_9.v0 + 4 d11_9.v1 + 100 d12_13 + 96 d12_22 + 33 d13_29 + 2 d14_15.v0 + 2 d14_15.v1 + 64 d14_16.v0 + 64 d14_16.v1 + 64 d15_16.v0 + 64 d15_16.v1 + 4 d16_21.v0 + 4 d16_21.v1 + 97 d16_24.v0 + 97 d16_24.v1 + 32 d17_18.v00 + 32 d17_18.v01 + 32 d17_18.v10 + 32 d17_18.v11 + 3 d17_20.v00 + 3 d17_20.v01 + 3 d17_20.v10 + 3 d17_20.v11 + 428 d18_23.v00 + 364 d18_23.v01 + 364 d18_23.v10 + 364 d18_23.v11 + 3 d19_20.v000 + 3 d19_20.v001 + 3 d19_20.v010 + 3 d19_20.v011 + 3 d19_20.v100 + 3 d19_20.v101 + 3 d19_20.v110 + 3 d19_20.v111 + 402 d19_19.v000 + 186 d19_19.v001 + 186 d19_19.v010 + 186 d19_19.v011 + 186 d19_19.v100 + 186 d19_19.v101 + 186 d19_19.v110 + 186 d19_19.v111 + 4 d20_21.v00 + 4 d20_21.v01 + 4 d20_21.v10 + 4 d20_21.v11 + 40 d20_17.v00 + 40 d20_17.v01 + 40 d20_17.v10 + 40 d20_17.v11 + 96 d21_22.v0 + 96 d21_22.v1 + 64 d21_14.v0 + 64 d21_14.v1 + 402 d23_19.v00 + 186 d23_19.v01 + 186 d23_19.v10 + 186 d23_19.v11 + 3 d23_20.v00 + 3 d23_20.v01 + 3 d23_20.v10 + 3 d23_20.v11 + 32 d24_25.v0 + 32 d24_25.v1 + 33 d24_27.v0 + 33 d24_27.v1 + 428 d25_28.v0 + 364 d25_28.v1 + 32 d26_27.v00 + 32 d26_27.v01 + 32 d26_27.v10 + 32 d26_27.v11 + 402 d26_26.v00 + 186 d26_26.v01 + 186 d26_26.v10 + 186 d26_26.v11 + 40 d27_17.v0 + 40 d27_17.v1 + 4 d27_21.v0 + 4 d27_21.v1 + 403 d28_26.v0 + 186 d28_26.v1 + 32 d28_27.v0 + 32 d28_27.v1 + 2 d29_30 + 69 d29_31 + 69 d30_31 + 63 d31_36 + 97 d31_38 + 32 d32_33.v0 + 32 d32_33.v1 + 3 d32_35.v0 + 3 d32_35.v1 + 428 d33_37.v0 + 364 d33_37.v1 + 3 d34_35.v00 + 3 d34_35.v01 + 3 d34_35.v10 + 3 d34_35.v11 + 402 d34_34.v00 + 186 d34_34.v01 + 186 d34_34.v10 + 186 d34_34.v11 + 63 d35_36.v0 + 63 d35_36.v1 + 40 d35_32.v0 + 40 d35_32.v1 + 64 d36_14 + 96 d36_22 + 402 d37_34.v0 + 186 d37_34.v1 + 3 d37_35.v0 + 3 d37_35.v1 + 32 d38_39 + 62 d38_41 + 428 d39_42 + 61 d40_41.v0 + 61 d40_41.v1 + 402 d40_40.v0 + 186 d40_40.v1 + 40 d41_32 + 63 d41_36 + 403 d42_40 + 61 d42_41 + 7 d43_10.v0 + 7 d43_10.v1 + 105 d43_11.v0 + 45 d43_11.v1 + 163 d44_46 + 66 d44_47 + 162 d45_46.v0 + 162 d45_46.v1 + 7 d45_45.v0 + 7 d45_45.v1 + 4 d46_9 + 33 d46_12 + 7 d47_45 + 162 d47_46 + 2 d48_49 + 133 d48_50 + 133 d49_50 + 2 d50_51 + 100 d50_52 + 100 d51_52 + 19 d52_1 + 34 d52_6


Subject to


\ === tcfg constraints ===
dSta_0 = 1
b0 - d0_48 = 0
b0 - dSta_0 = 0
b1 - d1_2 - d1_3 = 0
b1 - d5_1 - d52_1 = 0
b2 - d2_3 = 0
b2 - d1_2 = 0
b3 - d3_4 - d3_5 = 0
b3 - d1_3 - d2_3 = 0
b4 - d4_5 = 0
b4 - d3_4 = 0
b5 - d5_6 - d5_1 = 0
b5 - d3_5 - d4_5 = 0
b6 - d6_7 - d6_8 = 0
b6 - d5_6 - d52_6 = 0
b7 - d7_8 = 0
b7 - d6_7 = 0
b8 - d8_44 = 0
b8 - d6_8 - d7_8 = 0
b9 - d9_11 - d9_43 = 0
b9 - d11_9 - d46_9 = 0
b10 - d10_11 - d10_10 = 0
b10 - d10_10 - d43_10 = 0
b11 - d11_12 - d11_9 = 0
b11 - d9_11 - d10_11 - d43_11 = 0
b12 - d12_13 - d12_22 = 0
b12 - d11_12 - d46_12 = 0
b13 - d13_29 = 0
b13 - d12_13 = 0
b14 - d14_15 - d14_16 = 0
b14 - d21_14 - d36_14 = 0
b15 - d15_16 = 0
b15 - d14_15 = 0
b16 - d16_21 - d16_24 = 0
b16 - d14_16 - d15_16 = 0
b17 - d17_18 - d17_20 = 0
b17 - d20_17 - d27_17 = 0
b18 - d18_23 = 0
b18 - d17_18 = 0
b19 - d19_20 - d19_19 = 0
b19 - d19_19 - d23_19 = 0
b20 - d20_21 - d20_17 = 0
b20 - d17_20 - d19_20 - d23_20 = 0
b21 - d21_22 - d21_14 = 0
b21 - d16_21 - d20_21 - d27_21 = 0
b22 - d12_22 - d21_22 - d36_22 = 0
b23 - d23_19 - d23_20 = 0
b23 - d18_23 = 0
b24 - d24_25 - d24_27 = 0
b24 - d16_24 = 0
b25 - d25_28 = 0
b25 - d24_25 = 0
b26 - d26_27 - d26_26 = 0
b26 - d26_26 - d28_26 = 0
b27 - d27_17 - d27_21 = 0
b27 - d24_27 - d26_27 - d28_27 = 0
b28 - d28_26 - d28_27 = 0
b28 - d25_28 = 0
b29 - d29_30 - d29_31 = 0
b29 - d13_29 = 0
b30 - d30_31 = 0
b30 - d29_30 = 0
b31 - d31_36 - d31_38 = 0
b31 - d29_31 - d30_31 = 0
b32 - d32_33 - d32_35 = 0
b32 - d35_32 - d41_32 = 0
b33 - d33_37 = 0
b33 - d32_33 = 0
b34 - d34_35 - d34_34 = 0
b34 - d34_34 - d37_34 = 0
b35 - d35_36 - d35_32 = 0
b35 - d32_35 - d34_35 - d37_35 = 0
b36 - d36_14 - d36_22 = 0
b36 - d31_36 - d35_36 - d41_36 = 0
b37 - d37_34 - d37_35 = 0
b37 - d33_37 = 0
b38 - d38_39 - d38_41 = 0
b38 - d31_38 = 0
b39 - d39_42 = 0
b39 - d38_39 = 0
b40 - d40_41 - d40_40 = 0
b40 - d40_40 - d42_40 = 0
b41 - d41_32 - d41_36 = 0
b41 - d38_41 - d40_41 - d42_41 = 0
b42 - d42_40 - d42_41 = 0
b42 - d39_42 = 0
b43 - d43_10 - d43_11 = 0
b43 - d9_43 = 0
b44 - d44_46 - d44_47 = 0
b44 - d8_44 = 0
b45 - d45_46 - d45_45 = 0
b45 - d45_45 - d47_45 = 0
b46 - d46_9 - d46_12 = 0
b46 - d44_46 - d45_46 - d47_46 = 0
b47 - d47_45 - d47_46 = 0
b47 - d44_47 = 0
b48 - d48_49 - d48_50 = 0
b48 - d0_48 = 0
b49 - d49_50 = 0
b49 - d48_49 = 0
b50 - d50_51 - d50_52 = 0
b50 - d48_50 - d49_50 = 0
b51 - d51_52 = 0
b51 - d50_51 = 0
b52 - d52_1 - d52_6 = 0
b52 - d50_52 - d51_52 = 0


\ === context constraints ===

\(a)
d1_2 - d1_2.v0 - d1_2.v1 = 0
d1_3 - d1_3.v0 - d1_3.v1 = 0
d2_3 - d2_3.v0 - d2_3.v1 = 0
d3_4 - d3_4.v0 - d3_4.v1 = 0
d3_5 - d3_5.v0 - d3_5.v1 = 0
d4_5 - d4_5.v0 - d4_5.v1 = 0
d5_6 - d5_6.v0 - d5_6.v1 = 0
d5_1 - d5_1.v0 - d5_1.v1 = 0
d9_11 - d9_11.v0 - d9_11.v1 = 0
d9_43 - d9_43.v0 - d9_43.v1 = 0
d10_11 - d10_11.v00 - d10_11.v01 - d10_11.v10 - d10_11.v11 = 0
d10_10 - d10_10.v00 - d10_10.v01 - d10_10.v10 - d10_10.v11 = 0
d11_12 - d11_12.v0 - d11_12.v1 = 0
d11_9 - d11_9.v0 - d11_9.v1 = 0
d14_15 - d14_15.v0 - d14_15.v1 = 0
d14_16 - d14_16.v0 - d14_16.v1 = 0
d15_16 - d15_16.v0 - d15_16.v1 = 0
d16_21 - d16_21.v0 - d16_21.v1 = 0
d16_24 - d16_24.v0 - d16_24.v1 = 0
d17_18 - d17_18.v00 - d17_18.v01 - d17_18.v10 - d17_18.v11 = 0
d17_20 - d17_20.v00 - d17_20.v01 - d17_20.v10 - d17_20.v11 = 0
d18_23 - d18_23.v00 - d18_23.v01 - d18_23.v10 - d18_23.v11 = 0
d19_20 - d19_20.v000 - d19_20.v001 - d19_20.v010 - d19_20.v011 - d19_20.v100 - d19_20.v101 - d19_20.v110 - d19_20.v111 = 0
d19_19 - d19_19.v000 - d19_19.v001 - d19_19.v010 - d19_19.v011 - d19_19.v100 - d19_19.v101 - d19_19.v110 - d19_19.v111 = 0
d20_21 - d20_21.v00 - d20_21.v01 - d20_21.v10 - d20_21.v11 = 0
d20_17 - d20_17.v00 - d20_17.v01 - d20_17.v10 - d20_17.v11 = 0
d21_22 - d21_22.v0 - d21_22.v1 = 0
d21_14 - d21_14.v0 - d21_14.v1 = 0
d23_19 - d23_19.v00 - d23_19.v01 - d23_19.v10 - d23_19.v11 = 0
d23_20 - d23_20.v00 - d23_20.v01 - d23_20.v10 - d23_20.v11 = 0
d24_25 - d24_25.v0 - d24_25.v1 = 0
d24_27 - d24_27.v0 - d24_27.v1 = 0
d25_28 - d25_28.v0 - d25_28.v1 = 0
d26_27 - d26_27.v00 - d26_27.v01 - d26_27.v10 - d26_27.v11 = 0
d26_26 - d26_26.v00 - d26_26.v01 - d26_26.v10 - d26_26.v11 = 0
d27_17 - d27_17.v0 - d27_17.v1 = 0
d27_21 - d27_21.v0 - d27_21.v1 = 0
d28_26 - d28_26.v0 - d28_26.v1 = 0
d28_27 - d28_27.v0 - d28_27.v1 = 0
d32_33 - d32_33.v0 - d32_33.v1 = 0
d32_35 - d32_35.v0 - d32_35.v1 = 0
d33_37 - d33_37.v0 - d33_37.v1 = 0
d34_35 - d34_35.v00 - d34_35.v01 - d34_35.v10 - d34_35.v11 = 0
d34_34 - d34_34.v00 - d34_34.v01 - d34_34.v10 - d34_34.v11 = 0
d35_36 - d35_36.v0 - d35_36.v1 = 0
d35_32 - d35_32.v0 - d35_32.v1 = 0
d37_34 - d37_34.v0 - d37_34.v1 = 0
d37_35 - d37_35.v0 - d37_35.v1 = 0
d40_41 - d40_41.v0 - d40_41.v1 = 0
d40_40 - d40_40.v0 - d40_40.v1 = 0
d43_10 - d43_10.v0 - d43_10.v1 = 0
d43_11 - d43_11.v0 - d43_11.v1 = 0
d45_46 - d45_46.v0 - d45_46.v1 = 0
d45_45 - d45_45.v0 - d45_45.v1 = 0

\(b)
b1.v0 - d1_2.v0 - d1_3.v0 = 0
b1.v1 - d1_2.v1 - d1_3.v1 = 0
b2.v0 - d2_3.v0 = 0
b2.v1 - d2_3.v1 = 0
b3.v0 - d3_4.v0 - d3_5.v0 = 0
b3.v1 - d3_4.v1 - d3_5.v1 = 0
b4.v0 - d4_5.v0 = 0
b4.v1 - d4_5.v1 = 0
b5.v0 - d5_6.v0 - d5_1.v0 = 0
b5.v1 - d5_6.v1 - d5_1.v1 = 0
b9.v0 - d9_11.v0 - d9_43.v0 = 0
b9.v1 - d9_11.v1 - d9_43.v1 = 0
b10.v00 - d10_11.v00 - d10_10.v00 = 0
b10.v01 - d10_11.v01 - d10_10.v01 = 0
b10.v10 - d10_11.v10 - d10_10.v10 = 0
b10.v11 - d10_11.v11 - d10_10.v11 = 0
b11.v0 - d11_12.v0 - d11_9.v0 = 0
b11.v1 - d11_12.v1 - d11_9.v1 = 0
b14.v0 - d14_15.v0 - d14_16.v0 = 0
b14.v1 - d14_15.v1 - d14_16.v1 = 0
b15.v0 - d15_16.v0 = 0
b15.v1 - d15_16.v1 = 0
b16.v0 - d16_21.v0 - d16_24.v0 = 0
b16.v1 - d16_21.v1 - d16_24.v1 = 0
b17.v00 - d17_18.v00 - d17_20.v00 = 0
b17.v01 - d17_18.v01 - d17_20.v01 = 0
b17.v10 - d17_18.v10 - d17_20.v10 = 0
b17.v11 - d17_18.v11 - d17_20.v11 = 0
b18.v00 - d18_23.v00 = 0
b18.v01 - d18_23.v01 = 0
b18.v10 - d18_23.v10 = 0
b18.v11 - d18_23.v11 = 0
b19.v000 - d19_20.v000 - d19_19.v000 = 0
b19.v001 - d19_20.v001 - d19_19.v001 = 0
b19.v010 - d19_20.v010 - d19_19.v010 = 0
b19.v011 - d19_20.v011 - d19_19.v011 = 0
b19.v100 - d19_20.v100 - d19_19.v100 = 0
b19.v101 - d19_20.v101 - d19_19.v101 = 0
b19.v110 - d19_20.v110 - d19_19.v110 = 0
b19.v111 - d19_20.v111 - d19_19.v111 = 0
b20.v00 - d20_21.v00 - d20_17.v00 = 0
b20.v01 - d20_21.v01 - d20_17.v01 = 0
b20.v10 - d20_21.v10 - d20_17.v10 = 0
b20.v11 - d20_21.v11 - d20_17.v11 = 0
b21.v0 - d21_22.v0 - d21_14.v0 = 0
b21.v1 - d21_22.v1 - d21_14.v1 = 0
b23.v00 - d23_19.v00 - d23_20.v00 = 0
b23.v01 - d23_19.v01 - d23_20.v01 = 0
b23.v10 - d23_19.v10 - d23_20.v10 = 0
b23.v11 - d23_19.v11 - d23_20.v11 = 0
b24.v0 - d24_25.v0 - d24_27.v0 = 0
b24.v1 - d24_25.v1 - d24_27.v1 = 0
b25.v0 - d25_28.v0 = 0
b25.v1 - d25_28.v1 = 0
b26.v00 - d26_27.v00 - d26_26.v00 = 0
b26.v01 - d26_27.v01 - d26_26.v01 = 0
b26.v10 - d26_27.v10 - d26_26.v10 = 0
b26.v11 - d26_27.v11 - d26_26.v11 = 0
b27.v0 - d27_17.v0 - d27_21.v0 = 0
b27.v1 - d27_17.v1 - d27_21.v1 = 0
b28.v0 - d28_26.v0 - d28_27.v0 = 0
b28.v1 - d28_26.v1 - d28_27.v1 = 0
b32.v0 - d32_33.v0 - d32_35.v0 = 0
b32.v1 - d32_33.v1 - d32_35.v1 = 0
b33.v0 - d33_37.v0 = 0
b33.v1 - d33_37.v1 = 0
b34.v00 - d34_35.v00 - d34_34.v00 = 0
b34.v01 - d34_35.v01 - d34_34.v01 = 0
b34.v10 - d34_35.v10 - d34_34.v10 = 0
b34.v11 - d34_35.v11 - d34_34.v11 = 0
b35.v0 - d35_36.v0 - d35_32.v0 = 0
b35.v1 - d35_36.v1 - d35_32.v1 = 0
b37.v0 - d37_34.v0 - d37_35.v0 = 0
b37.v1 - d37_34.v1 - d37_35.v1 = 0
b40.v0 - d40_41.v0 - d40_40.v0 = 0
b40.v1 - d40_41.v1 - d40_40.v1 = 0
b43.v0 - d43_10.v0 - d43_11.v0 = 0
b43.v1 - d43_10.v1 - d43_11.v1 = 0
b45.v0 - d45_46.v0 - d45_45.v0 = 0
b45.v1 - d45_46.v1 - d45_45.v1 = 0

\(c)
b1 - b1.v0 - b1.v1 = 0
b2 - b2.v0 - b2.v1 = 0
b3 - b3.v0 - b3.v1 = 0
b4 - b4.v0 - b4.v1 = 0
b5 - b5.v0 - b5.v1 = 0
b9 - b9.v0 - b9.v1 = 0
b10 - b10.v00 - b10.v01 - b10.v10 - b10.v11 = 0
b11 - b11.v0 - b11.v1 = 0
b14 - b14.v0 - b14.v1 = 0
b15 - b15.v0 - b15.v1 = 0
b16 - b16.v0 - b16.v1 = 0
b17 - b17.v00 - b17.v01 - b17.v10 - b17.v11 = 0
b18 - b18.v00 - b18.v01 - b18.v10 - b18.v11 = 0
b19 - b19.v000 - b19.v001 - b19.v010 - b19.v011 - b19.v100 - b19.v101 - b19.v110 - b19.v111 = 0
b20 - b20.v00 - b20.v01 - b20.v10 - b20.v11 = 0
b21 - b21.v0 - b21.v1 = 0
b23 - b23.v00 - b23.v01 - b23.v10 - b23.v11 = 0
b24 - b24.v0 - b24.v1 = 0
b25 - b25.v0 - b25.v1 = 0
b26 - b26.v00 - b26.v01 - b26.v10 - b26.v11 = 0
b27 - b27.v0 - b27.v1 = 0
b28 - b28.v0 - b28.v1 = 0
b32 - b32.v0 - b32.v1 = 0
b33 - b33.v0 - b33.v1 = 0
b34 - b34.v00 - b34.v01 - b34.v10 - b34.v11 = 0
b35 - b35.v0 - b35.v1 = 0
b37 - b37.v0 - b37.v1 = 0
b40 - b40.v0 - b40.v1 = 0
b43 - b43.v0 - b43.v1 = 0
b45 - b45.v0 - b45.v1 = 0

\(d)
b1.v0 - d52_1 = 0
b10.v00 - d43_10.v0 = 0
b10.v10 - d43_10.v1 = 0
b9.v0 - d46_9 = 0
b19.v000 - d23_19.v00 = 0
b19.v010 - d23_19.v01 = 0
b19.v100 - d23_19.v10 = 0
b19.v110 - d23_19.v11 = 0
b17.v00 - d27_17.v0 = 0
b17.v10 - d27_17.v1 = 0
b14.v0 - d36_14 = 0
b26.v00 - d28_26.v0 = 0
b26.v10 - d28_26.v1 = 0
b34.v00 - d37_34.v0 = 0
b34.v10 - d37_34.v1 = 0
b32.v0 - d41_32 = 0
b40.v0 - d42_40 = 0
b45.v0 - d47_45 = 0

\(e)
b1.v1 - d5_1.v0 - d5_1.v1 = 0
b1.v1 - 126 d5_1.v0 <= 0
b10.v01 - d10_10.v00 - d10_10.v01 = 0
b10.v01 - 5 d10_10.v00 <= 0
b10.v11 - d10_10.v10 - d10_10.v11 = 0
b10.v11 - 5 d10_10.v10 <= 0
b9.v1 - d11_9.v0 - d11_9.v1 = 0
b9.v1 - 126 d11_9.v0 <= 0
b19.v001 - d19_19.v000 - d19_19.v001 = 0
b19.v001 - 6 d19_19.v000 <= 0
b19.v011 - d19_19.v010 - d19_19.v011 = 0
b19.v011 - 6 d19_19.v010 <= 0
b19.v101 - d19_19.v100 - d19_19.v101 = 0
b19.v101 - 6 d19_19.v100 <= 0
b19.v111 - d19_19.v110 - d19_19.v111 = 0
b19.v111 - 6 d19_19.v110 <= 0
b17.v01 - d20_17.v00 - d20_17.v01 = 0
b17.v01 - 6 d20_17.v00 <= 0
b17.v11 - d20_17.v10 - d20_17.v11 = 0
b17.v11 - 6 d20_17.v10 <= 0
b14.v1 - d21_14.v0 - d21_14.v1 = 0
b14.v1 - 5 d21_14.v0 <= 0
b26.v01 - d26_26.v00 - d26_26.v01 = 0
b26.v01 - 6 d26_26.v00 <= 0
b26.v11 - d26_26.v10 - d26_26.v11 = 0
b26.v11 - 6 d26_26.v10 <= 0
b34.v01 - d34_34.v00 - d34_34.v01 = 0
b34.v01 - 6 d34_34.v00 <= 0
b34.v11 - d34_34.v10 - d34_34.v11 = 0
b34.v11 - 6 d34_34.v10 <= 0
b32.v1 - d35_32.v0 - d35_32.v1 = 0
b32.v1 - 6 d35_32.v0 <= 0
b40.v1 - d40_40.v0 - d40_40.v1 = 0
b40.v1 - 6 d40_40.v0 <= 0
b45.v1 - d45_45.v0 - d45_45.v1 = 0
b45.v1 - 5 d45_45.v0 <= 0

\(f)
d5_6 - d5_6.v0 - d5_6.v1 = 0
d10_11.v0 - d10_11.v00 - d10_11.v01 = 0
d10_11.v1 - d10_11.v10 - d10_11.v11 = 0
d11_12 - d11_12.v0 - d11_12.v1 = 0
d19_20.v00 - d19_20.v000 - d19_20.v001 = 0
d19_20.v01 - d19_20.v010 - d19_20.v011 = 0
d19_20.v10 - d19_20.v100 - d19_20.v101 = 0
d19_20.v11 - d19_20.v110 - d19_20.v111 = 0
d20_21.v0 - d20_21.v00 - d20_21.v01 = 0
d20_21.v1 - d20_21.v10 - d20_21.v11 = 0
d21_22 - d21_22.v0 - d21_22.v1 = 0
d26_27.v0 - d26_27.v00 - d26_27.v01 = 0
d26_27.v1 - d26_27.v10 - d26_27.v11 = 0
d34_35.v0 - d34_35.v00 - d34_35.v01 = 0
d34_35.v1 - d34_35.v10 - d34_35.v11 = 0
d35_36 - d35_36.v0 - d35_36.v1 = 0
d40_41 - d40_41.v0 - d40_41.v1 = 0
d45_46 - d45_46.v0 - d45_46.v1 = 0

\(g)
b2.v0 - d1_2.v0 = 0
b2.v1 - d1_2.v1 = 0
b3.v0 - d1_3.v0 - d2_3.v0 = 0
b3.v1 - d1_3.v1 - d2_3.v1 = 0
b4.v0 - d3_4.v0 = 0
b4.v1 - d3_4.v1 = 0
b5.v0 - d3_5.v0 - d4_5.v0 = 0
b5.v1 - d3_5.v1 - d4_5.v1 = 0
b11.v0 - d9_11.v0 - d10_11.v0 - d43_11.v0 = 0
b11.v1 - d9_11.v1 - d10_11.v1 - d43_11.v1 = 0
b15.v0 - d14_15.v0 = 0
b15.v1 - d14_15.v1 = 0
b16.v0 - d14_16.v0 - d15_16.v0 = 0
b16.v1 - d14_16.v1 - d15_16.v1 = 0
b18.v00 - d17_18.v00 = 0
b18.v01 - d17_18.v01 = 0
b18.v10 - d17_18.v10 = 0
b18.v11 - d17_18.v11 = 0
b20.v00 - d17_20.v00 - d19_20.v00 - d23_20.v00 = 0
b20.v01 - d17_20.v01 - d19_20.v01 - d23_20.v01 = 0
b20.v10 - d17_20.v10 - d19_20.v10 - d23_20.v10 = 0
b20.v11 - d17_20.v11 - d19_20.v11 - d23_20.v11 = 0
b21.v0 - d16_21.v0 - d20_21.v0 - d27_21.v0 = 0
b21.v1 - d16_21.v1 - d20_21.v1 - d27_21.v1 = 0
b23.v00 - d18_23.v00 = 0
b23.v01 - d18_23.v01 = 0
b23.v10 - d18_23.v10 = 0
b23.v11 - d18_23.v11 = 0
b24.v0 - d16_24.v0 = 0
b24.v1 - d16_24.v1 = 0
b25.v0 - d24_25.v0 = 0
b25.v1 - d24_25.v1 = 0
b27.v0 - d24_27.v0 - d26_27.v0 - d28_27.v0 = 0
b27.v1 - d24_27.v1 - d26_27.v1 - d28_27.v1 = 0
b28.v0 - d25_28.v0 = 0
b28.v1 - d25_28.v1 = 0
b33.v0 - d32_33.v0 = 0
b33.v1 - d32_33.v1 = 0
b35.v0 - d32_35.v0 - d34_35.v0 - d37_35.v0 = 0
b35.v1 - d32_35.v1 - d34_35.v1 - d37_35.v1 = 0
b37.v0 - d33_37.v0 = 0
b37.v1 - d33_37.v1 = 0
b43.v0 - d9_43.v0 = 0
b43.v1 - d9_43.v1 = 0

\ === header constraints ===
b0 <= 1
b1 - 127 b0 <= 0
b1 - 127 d52_1 <= 0
b10 - 6 b9 <= 0
b10 - 6 d43_10 <= 0
b9 - 127 b0 <= 0
b9 - 127 d46_9 <= 0
b19 - 7 b17 <= 0
b19 - 7 d23_19 <= 0
b17 - 7 b14 <= 0
b17 - 7 d27_17 <= 0
b14 - 6 b0 <= 0
b14 - 6 d36_14 <= 0
b26 - 7 b14 <= 0
b26 - 7 d28_26 <= 0
b34 - 7 b32 <= 0
b34 - 7 d37_34 <= 0
b32 - 7 b0 <= 0
b32 - 7 d41_32 <= 0
b40 - 7 b0 <= 0
b40 - 7 d42_40 <= 0
b45 - 6 b0 <= 0
b45 - 6 d47_45 <= 0

Generals

Sta
b0
d0_48
b1
d1_2
d1_3
b2
d2_3
b3
d3_4
d3_5
b4
d4_5
b5
d5_6
d5_1
b6
d6_7
d6_8
b7
d7_8
b8
d8_44
b9
d9_11
d9_43
b10
d10_11
d10_10
b11
d11_12
d11_9
b12
d12_13
d12_22
b13
d13_29
b14
d14_15
d14_16
b15
d15_16
b16
d16_21
d16_24
b17
d17_18
d17_20
b18
d18_23
b19
d19_20
d19_19
b20
d20_21
d20_17
b21
d21_22
d21_14
b22
b23
d23_19
d23_20
b24
d24_25
d24_27
b25
d25_28
b26
d26_27
d26_26
b27
d27_17
d27_21
b28
d28_26
d28_27
b29
d29_30
d29_31
b30
d30_31
b31
d31_36
d31_38
b32
d32_33
d32_35
b33
d33_37
b34
d34_35
d34_34
b35
d35_36
d35_32
b36
d36_14
d36_22
b37
d37_34
d37_35
b38
d38_39
d38_41
b39
d39_42
b40
d40_41
d40_40
b41
d41_32
d41_36
b42
d42_40
d42_41
b43
d43_10
d43_11
b44
d44_46
d44_47
b45
d45_46
d45_45
b46
d46_9
d46_12
b47
d47_45
d47_46
b48
d48_49
d48_50
b49
d49_50
b50
d50_51
d50_52
b51
d51_52
b52
d52_1
d52_6
b0.d0
b0.d1
b0.d2
b0.d3
b0.d4
b5.d0
b5.d1
b6.d0
b11.d0
b11.d1
b11.d2
b11.d3
b13.d0
b13.d1
b17.d0
b17.d1
b17.d2
b17.d3
b19.d0
b19.d1
b19.d2
b19.d3
b19.d4
b19.d5
b19.d6
b19.d7
b19.d8
b19.d9
b19.d10
b19.d11
b19.d12
b19.d13
b19.d14
b19.d15
b19.d16
b19.d17
b19.d18
b19.d19
b22.d0
b22.d1
b22.d2
b22.d3
b23.d0
b23.d1
b23.d2
b23.d3
b23.d4
b23.d5
b23.d6
b23.d7
b23.d8
b23.d9
b23.d10
b23.d11
b23.d12
b23.d13
b23.d14
b23.d15
b23.d16
b23.d17
b23.d18
b23.d19
b24.d0
b24.d1
b24.d2
b24.d3
b26.d0
b26.d1
b26.d2
b26.d3
b26.d4
b26.d5
b26.d6
b26.d7
b26.d8
b26.d9
b26.d10
b26.d11
b26.d12
b26.d13
b26.d14
b26.d15
b26.d16
b26.d17
b26.d18
b26.d19
b28.d0
b28.d1
b28.d2
b28.d3
b28.d4
b28.d5
b28.d6
b28.d7
b28.d8
b28.d9
b28.d10
b28.d11
b28.d12
b28.d13
b28.d14
b28.d15
b28.d16
b28.d17
b28.d18
b28.d19
b32.d0
b32.d1
b32.d2
b32.d3
b34.d0
b34.d1
b34.d2
b34.d3
b34.d4
b34.d5
b34.d6
b34.d7
b34.d8
b34.d9
b34.d10
b34.d11
b34.d12
b34.d13
b34.d14
b34.d15
b34.d16
b34.d17
b34.d18
b34.d19
b37.d0
b37.d1
b37.d2
b37.d3
b37.d4
b37.d5
b37.d6
b37.d7
b37.d8
b37.d9
b37.d10
b37.d11
b37.d12
b37.d13
b37.d14
b37.d15
b37.d16
b37.d17
b37.d18
b37.d19
b38.d0
b38.d1
b38.d2
b38.d3
b40.d0
b40.d1
b40.d2
b40.d3
b40.d4
b40.d5
b40.d6
b40.d7
b40.d8
b40.d9
b40.d10
b40.d11
b40.d12
b40.d13
b40.d14
b40.d15
b40.d16
b40.d17
b40.d18
b40.d19
b42.d0
b42.d1
b42.d2
b42.d3
b42.d4
b42.d5
b42.d6
b42.d7
b42.d8
b42.d9
b42.d10
b42.d11
b42.d12
b42.d13
b42.d14
b42.d15
b42.d16
b42.d17
b42.d18
b42.d19
b46.d0
b46.d1
b46.d2
b46.d3
b52.d0
b52.d1
d0_48
d1_2.v0
d1_2.v1
d1_3.v0
d1_3.v1
d2_3.v0
d2_3.v1
d3_4.v0
d3_4.v1
d3_5.v0
d3_5.v1
d4_5.v0
d4_5.v1
d5_6.v0
d5_6.v1
d5_1.v0
d5_1.v1
d6_7
d6_8
d7_8
d8_44
d9_11.v0
d9_11.v1
d9_43.v0
d9_43.v1
d10_11.v00
d10_11.v01
d10_11.v10
d10_11.v11
d10_10.v00
d10_10.v01
d10_10.v10
d10_10.v11
d11_12.v0
d11_12.v1
d11_9.v0
d11_9.v1
d12_13
d12_22
d13_29
d14_15.v0
d14_15.v1
d14_16.v0
d14_16.v1
d15_16.v0
d15_16.v1
d16_21.v0
d16_21.v1
d16_24.v0
d16_24.v1
d17_18.v00
d17_18.v01
d17_18.v10
d17_18.v11
d17_20.v00
d17_20.v01
d17_20.v10
d17_20.v11
d18_23.v00
d18_23.v01
d18_23.v10
d18_23.v11
d19_20.v000
d19_20.v001
d19_20.v010
d19_20.v011
d19_20.v100
d19_20.v101
d19_20.v110
d19_20.v111
d19_19.v000
d19_19.v001
d19_19.v010
d19_19.v011
d19_19.v100
d19_19.v101
d19_19.v110
d19_19.v111
d20_21.v00
d20_21.v01
d20_21.v10
d20_21.v11
d20_17.v00
d20_17.v01
d20_17.v10
d20_17.v11
d21_22.v0
d21_22.v1
d21_14.v0
d21_14.v1
d23_19.v00
d23_19.v01
d23_19.v10
d23_19.v11
d23_20.v00
d23_20.v01
d23_20.v10
d23_20.v11
d24_25.v0
d24_25.v1
d24_27.v0
d24_27.v1
d25_28.v0
d25_28.v1
d26_27.v00
d26_27.v01
d26_27.v10
d26_27.v11
d26_26.v00
d26_26.v01
d26_26.v10
d26_26.v11
d27_17.v0
d27_17.v1
d27_21.v0
d27_21.v1
d28_26.v0
d28_26.v1
d28_27.v0
d28_27.v1
d29_30
d29_31
d30_31
d31_36
d31_38
d32_33.v0
d32_33.v1
d32_35.v0
d32_35.v1
d33_37.v0
d33_37.v1
d34_35.v00
d34_35.v01
d34_35.v10
d34_35.v11
d34_34.v00
d34_34.v01
d34_34.v10
d34_34.v11
d35_36.v0
d35_36.v1
d35_32.v0
d35_32.v1
d36_14
d36_22
d37_34.v0
d37_34.v1
d37_35.v0
d37_35.v1
d38_39
d38_41
d39_42
d40_41.v0
d40_41.v1
d40_40.v0
d40_40.v1
d41_32
d41_36
d42_40
d42_41
d43_10.v0
d43_10.v1
d43_11.v0
d43_11.v1
d44_46
d44_47
d45_46.v0
d45_46.v1
d45_45.v0
d45_45.v1
d46_9
d46_12
d47_45
d47_46
d48_49
d48_50
d49_50
d50_51
d50_52
d51_52
d52_1
d52_6

End
\ total_cons: 408 	total_vars: 344
