lp_solve/compute_ilp/result/fft.res
set_XLI: Successfully loaded './xli_CPLEX'

Value of objective function: 131274

Actual values of the variables:
dSta_0                          1
d0_48                           1
d1_2.v0                         1
d1_2.v1                       126
d1_3.v0                         0
d1_3.v1                         0
d2_3.v0                         1
d2_3.v1                       126
d3_4.v0                         1
d3_4.v1                       126
d3_5.v0                         0
d3_5.v1                         0
d4_5.v0                         1
d4_5.v1                       126
d5_6.v0                         0
d5_6.v1                         1
d5_1.v0                         1
d5_1.v1                       125
d6_7                            1
d6_8                            0
d7_8                            1
d8_44                           1
d9_11.v0                        0
d9_11.v1                        0
d9_43.v0                        1
d9_43.v1                      126
d10_11.v00                      0
d10_11.v01                      1
d10_11.v10                      0
d10_11.v11                    126
d10_10.v00                      1
d10_10.v01                      4
d10_10.v10                    126
d10_10.v11                    504
d11_12.v0                       0
d11_12.v1                       1
d11_9.v0                        1
d11_9.v1                      125
d12_13                          1
d12_22                          0
d13_29                          1
d14_15.v0                       1
d14_15.v1                       5
d14_16.v0                       0
d14_16.v1                       0
d15_16.v0                       1
d15_16.v1                       5
d16_21.v0                       0
d16_21.v1                       0
d16_24.v0                       1
d16_24.v1                       5
d17_18.v00                      1
d17_18.v01                      6
d17_18.v10                      5
d17_18.v11                     30
d17_20.v00                      0
d17_20.v01                      0
d17_20.v10                      0
d17_20.v11                      0
d18_23.v00                      1
d18_23.v01                      6
d18_23.v10                      5
d18_23.v11                     30
d19_20.v000                     0
d19_20.v001                     1
d19_20.v010                     0
d19_20.v011                     6
d19_20.v100                     0
d19_20.v101                     5
d19_20.v110                     0
d19_20.v111                    30
d19_19.v000                     1
d19_19.v001                     5
d19_19.v010                     6
d19_19.v011                    30
d19_19.v100                     5
d19_19.v101                    25
d19_19.v110                    30
d19_19.v111                   150
d20_21.v00                      0
d20_21.v01                      1
d20_21.v10                      0
d20_21.v11                      5
d20_17.v00                      1
d20_17.v01                      5
d20_17.v10                      5
d20_17.v11                     25
d21_22.v0                       0
d21_22.v1                       1
d21_14.v0                       1
d21_14.v1                       4
d23_19.v00                      1
d23_19.v01                      6
d23_19.v10                      5
d23_19.v11                     30
d23_20.v00                      0
d23_20.v01                      0
d23_20.v10                      0
d23_20.v11                      0
d24_25.v0                       1
d24_25.v1                       5
d24_27.v0                       0
d24_27.v1                       0
d25_28.v0                       1
d25_28.v1                       5
d26_27.v00                      0
d26_27.v01                      1
d26_27.v10                      0
d26_27.v11                      5
d26_26.v00                      1
d26_26.v01                      5
d26_26.v10                      5
d26_26.v11                     25
d27_17.v0                       1
d27_17.v1                       5
d27_21.v0                       0
d27_21.v1                       0
d28_26.v0                       1
d28_26.v1                       5
d28_27.v0                       0
d28_27.v1                       0
d29_30                          1
d29_31                          0
d30_31                          1
d31_36                          0
d31_38                          1
d32_33.v0                       1
d32_33.v1                       6
d32_35.v0                       0
d32_35.v1                       0
d33_37.v0                       1
d33_37.v1                       6
d34_35.v00                      0
d34_35.v01                      1
d34_35.v10                      0
d34_35.v11                      6
d34_34.v00                      1
d34_34.v01                      5
d34_34.v10                      6
d34_34.v11                     30
d35_36.v0                       0
d35_36.v1                       1
d35_32.v0                       1
d35_32.v1                       5
d36_14                          1
d36_22                          0
d37_34.v0                       1
d37_34.v1                       6
d37_35.v0                       0
d37_35.v1                       0
d38_39                          1
d38_41                          0
d39_42                          1
d40_41.v0                       0
d40_41.v1                       1
d40_40.v0                       1
d40_40.v1                       5
d41_32                          1
d41_36                          0
d42_40                          1
d42_41                          0
d43_10.v0                       1
d43_10.v1                     126
d43_11.v0                       0
d43_11.v1                       0
d44_46                          0
d44_47                          1
d45_46.v0                       0
d45_46.v1                       1
d45_45.v0                       1
d45_45.v1                       4
d46_9                           1
d46_12                          0
d47_45                          1
d47_46                          0
d48_49                          1
d48_50                          0
d49_50                          1
d50_51                          1
d50_52                          0
d51_52                          1
d52_1                           1
d52_6                           0
b0                              1
b1                            127
d1_2                          127
d1_3                            0
d5_1                          126
b2                            127
d2_3                          127
b3                            127
d3_4                          127
d3_5                            0
b4                            127
d4_5                          127
b5                            127
d5_6                            1
b6                              1
b7                              1
b8                              1
b9                            127
d9_11                           0
d9_43                         127
d11_9                         126
b10                           762
d10_11                        127
d10_10                        635
d43_10                        127
b11                           127
d11_12                          1
d43_11                          0
b12                             1
b13                             1
b14                             6
d14_15                          6
d14_16                          0
d21_14                          5
b15                             6
d15_16                          6
b16                             6
d16_21                          0
d16_24                          6
b17                            42
d17_18                         42
d17_20                          0
d20_17                         36
d27_17                          6
b18                            42
d18_23                         42
b19                           294
d19_20                         42
d19_19                        252
d23_19                         42
b20                            42
d20_21                          6
d23_20                          0
b21                             6
d21_22                          1
d27_21                          0
b22                             1
b23                            42
b24                             6
d24_25                          6
d24_27                          0
b25                             6
d25_28                          6
b26                            42
d26_27                          6
d26_26                         36
d28_26                          6
b27                             6
d28_27                          0
b28                             6
b29                             1
b30                             1
b31                             1
b32                             7
d32_33                          7
d32_35                          0
d35_32                          6
b33                             7
d33_37                          7
b34                            49
d34_35                          7
d34_34                         42
d37_34                          7
b35                             7
d35_36                          1
d37_35                          0
b36                             1
b37                             7
b38                             1
b39                             1
b40                             7
d40_41                          1
d40_40                          6
b41                             1
b42                             1
b43                           127
b44                             1
b45                             6
d45_46                          1
d45_45                          5
b46                             1
b47                             1
b48                             1
b49                             1
b50                             1
b51                             1
b52                             1
b1.v0                           1
b1.v1                         126
b2.v0                           1
b2.v1                         126
b3.v0                           1
b3.v1                         126
b4.v0                           1
b4.v1                         126
b5.v0                           1
b5.v1                         126
b9.v0                           1
b9.v1                         126
b10.v00                         1
b10.v01                         5
b10.v10                       126
b10.v11                       630
b11.v0                          1
b11.v1                        126
b14.v0                          1
b14.v1                          5
b15.v0                          1
b15.v1                          5
b16.v0                          1
b16.v1                          5
b17.v00                         1
b17.v01                         6
b17.v10                         5
b17.v11                        30
b18.v00                         1
b18.v01                         6
b18.v10                         5
b18.v11                        30
b19.v000                        1
b19.v001                        6
b19.v010                        6
b19.v011                       36
b19.v100                        5
b19.v101                       30
b19.v110                       30
b19.v111                      180
b20.v00                         1
b20.v01                         6
b20.v10                         5
b20.v11                        30
b21.v0                          1
b21.v1                          5
b23.v00                         1
b23.v01                         6
b23.v10                         5
b23.v11                        30
b24.v0                          1
b24.v1                          5
b25.v0                          1
b25.v1                          5
b26.v00                         1
b26.v01                         6
b26.v10                         5
b26.v11                        30
b27.v0                          1
b27.v1                          5
b28.v0                          1
b28.v1                          5
b32.v0                          1
b32.v1                          6
b33.v0                          1
b33.v1                          6
b34.v00                         1
b34.v01                         6
b34.v10                         6
b34.v11                        36
b35.v0                          1
b35.v1                          6
b37.v0                          1
b37.v1                          6
b40.v0                          1
b40.v1                          6
b43.v0                          1
b43.v1                        126
b45.v0                          1
b45.v1                          5
d10_11.v0                       1
d10_11.v1                     126
d19_20.v00                      1
d19_20.v01                      6
d19_20.v10                      5
d19_20.v11                     30
d20_21.v0                       1
d20_21.v1                       5
d26_27.v0                       1
d26_27.v1                       5
d34_35.v0                       1
d34_35.v1                       6
